Gurobi Optimizer version 9.1.2 build v9.1.2rc0 (linux64)
Thread count: 36 physical cores, 72 logical processors, using up to 32 threads
Optimize a model with 12 rows, 57 columns and 590 nonzeros
Model fingerprint: 0xf32eec78
Model has 47 quadratic constraints
Coefficient statistics:
  Matrix range     [2e-05, 3e+00]
  QMatrix range    [1e+00, 1e+00]
  QLMatrix range   [1e+00, 1e+00]
  Objective range  [8e-03, 7e-01]
  Bounds range     [1e+00, 1e+00]
  RHS range        [1e+00, 1e+00]
Presolve removed 9 rows and 0 columns

Continuous model is non-convex -- solving as a MIP.

Presolve removed 9 rows and 0 columns
Presolve time: 0.00s
Presolved: 189 rows, 57 columns, 443 nonzeros
Presolved model has 47 bilinear constraint(s)
Variable types: 57 continuous, 0 integer (0 binary)

Root relaxation: objective -1.743721e+00, 44 iterations, 0.00 seconds

    Nodes    |    Current Node    |     Objective Bounds      |     Work
 Expl Unexpl |  Obj  Depth IntInf | Incumbent    BestBd   Gap | It/Node Time

     0     0   -1.74372    0   38          -   -1.74372      -     -    0s
H    0     0                       0.6147548   -1.74372   384%     -    0s
     0     0   -1.64739    0    1    0.61475   -1.64739   368%     -    0s
H    0     0                      -1.6450460   -1.64739  0.14%     -    0s
     0     0     cutoff    0        -1.64505   -1.64505  0.00%     -    0s

Cutting planes:
  RLT: 25
  BQP: 3

Explored 1 nodes (76 simplex iterations) in 0.01 seconds
Thread count was 32 (of 72 available processors)

Solution count 2: -1.64505 0.614755 
No other solutions better than -1.64505

Optimal solution found (tolerance 1.00e-04)
Best objective -1.645045978473e+00, best bound -1.645045978473e+00, gap 0.0000%

User-callback calls 77, time in user-callback 0.00 sec
Gurobi Optimizer version 9.1.2 build v9.1.2rc0 (linux64)
Thread count: 36 physical cores, 72 logical processors, using up to 32 threads
Optimize a model with 24 rows, 125 columns and 2580 nonzeros
Model fingerprint: 0xbe2f9d2b
Model has 105 quadratic constraints
Coefficient statistics:
  Matrix range     [5e-06, 5e+01]
  QMatrix range    [1e+00, 1e+00]
  QLMatrix range   [1e+00, 1e+00]
  Objective range  [1e-02, 1e+00]
  Bounds range     [1e+00, 1e+00]
  RHS range        [1e+00, 1e+00]
Presolve removed 10 rows and 0 columns

Continuous model is non-convex -- solving as a MIP.

Presolve removed 10 rows and 0 columns
Presolve time: 0.00s
Presolved: 429 rows, 125 columns, 2142 nonzeros
Presolved model has 105 bilinear constraint(s)
Variable types: 125 continuous, 0 integer (0 binary)

Root relaxation: objective -6.218076e+00, 121 iterations, 0.00 seconds

    Nodes    |    Current Node    |     Objective Bounds      |     Work
 Expl Unexpl |  Obj  Depth IntInf | Incumbent    BestBd   Gap | It/Node Time

     0     0   -6.21808    0   95          -   -6.21808      -     -    0s
H    0     0                       0.0093394   -6.21808      -     -    0s
     0     0   -5.18173    0   72    0.00934   -5.18173      -     -    0s
H    0     0                      -1.8664568   -5.18173   178%     -    0s
     0     0   -5.10578    0   83   -1.86646   -5.10578   174%     -    0s
     0     0   -4.91409    0   70   -1.86646   -4.91409   163%     -    0s
H    0     0                      -2.6481578   -4.91409  85.6%     -    0s
     0     0   -4.86967    0   87   -2.64816   -4.86967  83.9%     -    0s
     0     0   -4.80708    0   93   -2.64816   -4.80708  81.5%     -    0s
H    0     0                      -2.6581981   -4.80708  80.8%     -    0s
     0     0   -4.80418    0   93   -2.65820   -4.80418  80.7%     -    0s
     0     0   -4.78085    0   83   -2.65820   -4.78085  79.9%     -    0s
     0     0   -4.77860    0   92   -2.65820   -4.77860  79.8%     -    0s
     0     0   -4.77254    0   92   -2.65820   -4.77254  79.5%     -    0s
     0     0   -4.77252    0   92   -2.65820   -4.77252  79.5%     -    0s
     0     0   -4.77173    0   92   -2.65820   -4.77173  79.5%     -    0s
     0     0   -4.77148    0   92   -2.65820   -4.77148  79.5%     -    0s
     0     0   -4.77130    0   92   -2.65820   -4.77130  79.5%     -    0s
H    0     0                      -3.5428576   -4.77130  34.7%     -    0s
H    0     0                      -3.6786026   -4.77130  29.7%     -    0s
H    0     0                      -3.8245135   -4.77130  24.8%     -    0s
H    0     0                      -3.8305034   -4.77130  24.6%     -    0s
     0     2   -4.77130    0   92   -3.83050   -4.77130  24.6%     -    0s
*  441   251              15      -3.8309911   -4.35853  13.8%  37.1    0s
*  535   321              15      -3.8309917   -4.35853  13.8%  33.6    0s
*  546   321              20      -3.8539035   -4.35853  13.1%  33.3    0s
*  606   405              21      -3.8561062   -4.35853  13.0%  31.5    0s
*  607   405              21      -3.8561065   -4.35853  13.0%  31.4    0s
*  743   509              23      -3.8563754   -4.35853  13.0%  28.1    0s
*  744   509              23      -3.8563882   -4.35853  13.0%  28.0    0s
*  745   509              22      -3.8564198   -4.35853  13.0%  28.0    0s
*  762   509              16      -3.8679848   -4.35853  12.7%  27.8    0s
*  849   509              26      -4.0825886   -4.35853  6.76%  25.7    0s
*  920   358              20      -4.0826760   -4.20722  3.05%  24.7    0s
* 1108   288              20      -4.0850713   -4.14391  1.44%  21.7    0s
* 1192   288              21      -4.0856533   -4.13889  1.30%  20.5    0s
* 1315   156              21      -4.0865348   -4.11453  0.69%  19.1    0s
* 1316   156              21      -4.0865356   -4.11453  0.69%  19.1    0s
* 1533    28              15      -4.0897761   -4.11453  0.61%  16.7    0s
* 1534    28              15      -4.0898247   -4.11453  0.60%  16.6    0s
* 1537    28              16      -4.0898779   -4.11453  0.60%  16.6    0s
* 1690    10              15      -4.0899090   -4.10071  0.26%  15.2    0s
* 1706    10              15      -4.0904217   -4.09042  0.00%  15.2    0s

Cutting planes:
  RLT: 56
  BQP: 7
  PSD: 41

Explored 1732 nodes (26352 simplex iterations) in 0.64 seconds
Thread count was 32 (of 72 available processors)

Solution count 10: -4.09042 -4.08991 -4.08988 ... -4.08268
No other solutions better than -4.09042

Optimal solution found (tolerance 1.00e-04)
Best objective -4.090421683625e+00, best bound -4.090421683625e+00, gap 0.0000%

User-callback calls 3749, time in user-callback 0.00 sec



objective value: -4.0904216836249265
objective bound: -4.0904216836249265
x_opt: [0.0, 0.0, 1.0, 0.0, 1.0, 0.6723865318160929, 1.0, 1.0, 1.0, 0.0, 0.0, 0.19634667627496735, 0.0, 0.0, 0.0053960426234920126, 0.4978099813200118, 0.0, 0.0, 0.0, 0.0]
GUROBI solution time: 0.6394031047821045




